/* Objective function */
min: +C37 +C38 +C39 +C40 +C41 +C42;

/* Constraints */
+8 C1 +2 C2 +6 C3 +9 C4 +2 C5 +7 C6 -10 C37 <= 0;
+8 C7 +2 C8 +6 C9 +9 C10 +2 C11 +7 C12 -10 C38 <= 0;
+8 C13 +2 C14 +6 C15 +9 C16 +2 C17 +7 C18 -10 C39 <= 0;
+8 C19 +2 C20 +6 C21 +9 C22 +2 C23 +7 C24 -10 C40 <= 0;
+8 C25 +2 C26 +6 C27 +9 C28 +2 C29 +7 C30 -10 C41 <= 0;
+8 C31 +2 C32 +6 C33 +9 C34 +2 C35 +7 C36 -10 C42 <= 0;
+55 C1 +16 C2 +62 C3 +21 C4 +48 C5 +47 C6 -88 C37 <= 0;
+55 C7 +16 C8 +62 C9 +21 C10 +48 C11 +47 C12 -88 C38 <= 0;
+55 C13 +16 C14 +62 C15 +21 C16 +48 C17 +47 C18 -88 C39 <= 0;
+55 C19 +16 C20 +62 C21 +21 C22 +48 C23 +47 C24 -88 C40 <= 0;
+55 C25 +16 C26 +62 C27 +21 C28 +48 C29 +47 C30 -88 C41 <= 0;
+55 C31 +16 C32 +62 C33 +21 C34 +48 C35 +47 C36 -88 C42 <= 0;
+C1 +C7 +C13 +C19 +C25 +C31 = 1;
+C2 +C8 +C14 +C20 +C26 +C32 = 1;
+C3 +C9 +C15 +C21 +C27 +C33 = 1;
+C4 +C10 +C16 +C22 +C28 +C34 = 1;
+C5 +C11 +C17 +C23 +C29 +C35 = 1;
+C6 +C12 +C18 +C24 +C30 +C36 = 1;

/* Variable bounds */
C1 <= 1;
C2 <= 1;
C3 <= 1;
C4 <= 1;
C5 <= 1;
C6 <= 1;
C7 <= 1;
C8 <= 1;
C9 <= 1;
C10 <= 1;
C11 <= 1;
C12 <= 1;
C13 <= 1;
C14 <= 1;
C15 <= 1;
C16 <= 1;
C17 <= 1;
C18 <= 1;
C19 <= 1;
C20 <= 1;
C21 <= 1;
C22 <= 1;
C23 <= 1;
C24 <= 1;
C25 <= 1;
C26 <= 1;
C27 <= 1;
C28 <= 1;
C29 <= 1;
C30 <= 1;
C31 <= 1;
C32 <= 1;
C33 <= 1;
C34 <= 1;
C35 <= 1;
C36 <= 1;
C37 <= 1;
C38 <= 1;
C39 <= 1;
C40 <= 1;
C41 <= 1;
C42 <= 1;

/* Integer definitions */
int C1,C2,C3,C4,C5,C6,C7,C8,C9,C10,C11,C12,C13,C14,C15,C16,C17,C18,C19,C20,C21,C22,C23,C24,C25,C26,C27,C28,C29,C30,C31,C32,C33,C34,C35,C36,C37,C38,C39,C40,C41,C42;
